Minimize
	value: tt

Subject to
tt + 2000 s_1_1 > 0
tt - t_1_1 - 2000.000000 s_1_1 > -1993.085300
tt + 2000 s_2_1 > 0
tt - t_2_1 - 2000.000000 s_2_1 > -1992.165144
tt + 2000 s_1_2 > 0
tt - t_1_2 - 2000.000000 s_1_2 > -1998.285700
tt + 2000 s_2_2 > 0
tt - t_2_2 - 2000.000000 s_2_2 > -1998.912111
tt + 2000 s_1_3 > 0
tt - t_1_3 - 2000.000000 s_1_3 > -1997.326200
tt + 2000 s_2_3 > 0
tt - t_2_3 - 2000.000000 s_2_3 > -1997.500700
tt + 2000 s_1_4 > 0
tt - t_1_4 - 2000.000000 s_1_4 > -1996.690600
tt + 2000 s_2_4 > 0
tt - t_2_4 - 2000.000000 s_2_4 > -1995.294750
tt + 2000 s_1_5 > 0
tt - t_1_5 - 2026.503280 s_1_5 + 26.503280 s_1_1 > -1999.792600
tt + 2000 s_2_5 > 0
tt - t_2_5 - 2053.006560 s_2_5 + 53.006560 s_2_1 > -1999.001444
s_1_1 + s_2_1  = 1
s_1_2 + s_2_2  = 1
s_1_3 + s_2_3  = 1
s_1_4 + s_2_4  = 1
s_1_5 + s_2_5  = 1
t_1_1 - t_1_2 + 2000.000000 u_1_1_2 > 1.714300
t_1_2 - t_1_1 - 2000.000000 u_1_1_2 > -1993.085300
t_2_1 - t_2_2 + 2000.000000 u_2_1_2 > 1.087889
t_2_2 - t_2_1 - 2000.000000 u_2_1_2 > -1992.165144
t_1_1 - t_1_3 + 2000.000000 u_1_1_3 > 2.673800
t_1_3 - t_1_1 - 2000.000000 u_1_1_3 > -1993.085300
t_2_1 - t_2_3 + 2000.000000 u_2_1_3 > 2.499300
t_2_3 - t_2_1 - 2000.000000 u_2_1_3 > -1992.165144
t_1_1 - t_1_4 + 2000.000000 u_1_1_4 > 3.309400
t_1_4 - t_1_1 - 2000.000000 u_1_1_4 > -1993.085300
t_2_1 - t_2_4 + 2000.000000 u_2_1_4 > 4.705250
t_2_4 - t_2_1 - 2000.000000 u_2_1_4 > -1992.165144
t_1_5 - t_1_1 - 2000.000000 s_1_1 > -1990.585300
t_1_5 - t_2_1 - 2000.000000 s_2_1 > -1987.165144
t_2_5 - t_1_1 - 2000.000000 s_1_1 > -1990.585300
t_2_5 - t_2_1 - 2000.000000 s_2_1 > -1987.165144
t_1_2 - t_1_1 + 2000.000000 u_1_2_1 > 6.914700
t_1_1 - t_1_2 - 2000.000000 u_1_2_1 > -1998.285700
t_2_2 - t_2_1 + 2000.000000 u_2_2_1 > 7.834856
t_2_1 - t_2_2 - 2000.000000 u_2_2_1 > -1998.912111
t_1_2 - t_1_3 + 2000.000000 u_1_2_3 > 2.673800
t_1_3 - t_1_2 - 2000.000000 u_1_2_3 > -1998.285700
t_2_2 - t_2_3 + 2000.000000 u_2_2_3 > 2.499300
t_2_3 - t_2_2 - 2000.000000 u_2_2_3 > -1998.912111
t_1_2 - t_1_4 + 2000.000000 u_1_2_4 > 3.309400
t_1_4 - t_1_2 - 2000.000000 u_1_2_4 > -1998.285700
t_2_2 - t_2_4 + 2000.000000 u_2_2_4 > 4.705250
t_2_4 - t_2_2 - 2000.000000 u_2_2_4 > -1998.912111
t_1_5 - t_1_2 - 2000.000000 s_1_2 > -1995.785700
t_1_5 - t_2_2 - 2000.000000 s_2_2 > -1993.912111
t_2_5 - t_1_2 - 2000.000000 s_1_2 > -1995.785700
t_2_5 - t_2_2 - 2000.000000 s_2_2 > -1993.912111
t_1_3 - t_1_1 + 2000.000000 u_1_3_1 > 6.914700
t_1_1 - t_1_3 - 2000.000000 u_1_3_1 > -1997.326200
t_2_3 - t_2_1 + 2000.000000 u_2_3_1 > 7.834856
t_2_1 - t_2_3 - 2000.000000 u_2_3_1 > -1997.500700
t_1_3 - t_1_2 + 2000.000000 u_1_3_2 > 1.714300
t_1_2 - t_1_3 - 2000.000000 u_1_3_2 > -1997.326200
t_2_3 - t_2_2 + 2000.000000 u_2_3_2 > 1.087889
t_2_2 - t_2_3 - 2000.000000 u_2_3_2 > -1997.500700
t_1_3 - t_1_4 + 2000.000000 u_1_3_4 > 3.309400
t_1_4 - t_1_3 - 2000.000000 u_1_3_4 > -1997.326200
t_2_3 - t_2_4 + 2000.000000 u_2_3_4 > 4.705250
t_2_4 - t_2_3 - 2000.000000 u_2_3_4 > -1997.500700
t_1_5 - t_1_3 - 2000.000000 s_1_3 > -1994.826200
t_1_5 - t_2_3 - 2000.000000 s_2_3 > -1992.500700
t_2_5 - t_1_3 - 2000.000000 s_1_3 > -1994.826200
t_2_5 - t_2_3 - 2000.000000 s_2_3 > -1992.500700
t_1_4 - t_1_1 + 2000.000000 u_1_4_1 > 6.914700
t_1_1 - t_1_4 - 2000.000000 u_1_4_1 > -1996.690600
t_2_4 - t_2_1 + 2000.000000 u_2_4_1 > 7.834856
t_2_1 - t_2_4 - 2000.000000 u_2_4_1 > -1995.294750
t_1_4 - t_1_2 + 2000.000000 u_1_4_2 > 1.714300
t_1_2 - t_1_4 - 2000.000000 u_1_4_2 > -1996.690600
t_2_4 - t_2_2 + 2000.000000 u_2_4_2 > 1.087889
t_2_2 - t_2_4 - 2000.000000 u_2_4_2 > -1995.294750
t_1_4 - t_1_3 + 2000.000000 u_1_4_3 > 2.673800
t_1_3 - t_1_4 - 2000.000000 u_1_4_3 > -1996.690600
t_2_4 - t_2_3 + 2000.000000 u_2_4_3 > 2.499300
t_2_3 - t_2_4 - 2000.000000 u_2_4_3 > -1995.294750
t_1_5 - t_1_4 - 2000.000000 s_1_4 > -1994.190600
t_1_5 - t_2_4 - 2000.000000 s_2_4 > -1990.294750
t_2_5 - t_1_4 - 2000.000000 s_1_4 > -1994.190600
t_2_5 - t_2_4 - 2000.000000 s_2_4 > -1990.294750
t_1_5 - t_1_1 - 2000.000000 s_1_1 > -1990.585300
t_1_5 - t_2_1 - 2000.000000 s_2_1 > -1987.165144
t_2_5 - t_1_1 - 2000.000000 s_1_1 > -1990.585300
t_2_5 - t_2_1 - 2000.000000 s_2_1 > -1987.165144
t_1_5 - t_1_2 - 2000.000000 s_1_2 > -1995.785700
t_1_5 - t_2_2 - 2000.000000 s_2_2 > -1993.912111
t_2_5 - t_1_2 - 2000.000000 s_1_2 > -1995.785700
t_2_5 - t_2_2 - 2000.000000 s_2_2 > -1993.912111
t_1_5 - t_1_3 - 2000.000000 s_1_3 > -1994.826200
t_1_5 - t_2_3 - 2000.000000 s_2_3 > -1992.500700
t_2_5 - t_1_3 - 2000.000000 s_1_3 > -1994.826200
t_2_5 - t_2_3 - 2000.000000 s_2_3 > -1992.500700
t_1_5 - t_1_4 - 2000.000000 s_1_4 > -1994.190600
t_1_5 - t_2_4 - 2000.000000 s_2_4 > -1990.294750
t_2_5 - t_1_4 - 2000.000000 s_1_4 > -1994.190600
t_2_5 - t_2_4 - 2000.000000 s_2_4 > -1990.294750
Binary
s_1_1
s_2_1
s_1_2
s_2_2
s_1_3
s_2_3
s_1_4
s_2_4
s_1_5
s_2_5
u_1_1_2
u_2_1_2
u_1_1_3
u_2_1_3
u_1_1_4
u_2_1_4
u_1_2_1
u_2_2_1
u_1_2_3
u_2_2_3
u_1_2_4
u_2_2_4
u_1_3_1
u_2_3_1
u_1_3_2
u_2_3_2
u_1_3_4
u_2_3_4
u_1_4_1
u_2_4_1
u_1_4_2
u_2_4_2
u_1_4_3
u_2_4_3

End
